c *********************************
c * Circuit generated by BenCGen
c *
c * Parity_349
c *
c * Ports with 1 gate(s): 1
c * Ports with 2 gate(s): 349
c * Total gates: 350
c *********************************
p cnf 699 1397
1 352 0
-1 -352 0
1 -351 0
352 -351 0
-1 -352 351 0
1 2 -353 0
-1 2 353 0
1 -2 353 0
-1 -2 -353 0
3 4 -354 0
-3 4 354 0
3 -4 354 0
-3 -4 -354 0
5 6 -355 0
-5 6 355 0
5 -6 355 0
-5 -6 -355 0
7 8 -356 0
-7 8 356 0
7 -8 356 0
-7 -8 -356 0
9 10 -357 0
-9 10 357 0
9 -10 357 0
-9 -10 -357 0
11 12 -358 0
-11 12 358 0
11 -12 358 0
-11 -12 -358 0
13 14 -359 0
-13 14 359 0
13 -14 359 0
-13 -14 -359 0
15 16 -360 0
-15 16 360 0
15 -16 360 0
-15 -16 -360 0
17 18 -361 0
-17 18 361 0
17 -18 361 0
-17 -18 -361 0
19 20 -362 0
-19 20 362 0
19 -20 362 0
-19 -20 -362 0
21 22 -363 0
-21 22 363 0
21 -22 363 0
-21 -22 -363 0
23 24 -364 0
-23 24 364 0
23 -24 364 0
-23 -24 -364 0
25 26 -365 0
-25 26 365 0
25 -26 365 0
-25 -26 -365 0
27 28 -366 0
-27 28 366 0
27 -28 366 0
-27 -28 -366 0
29 30 -367 0
-29 30 367 0
29 -30 367 0
-29 -30 -367 0
31 32 -368 0
-31 32 368 0
31 -32 368 0
-31 -32 -368 0
33 34 -369 0
-33 34 369 0
33 -34 369 0
-33 -34 -369 0
35 36 -370 0
-35 36 370 0
35 -36 370 0
-35 -36 -370 0
37 38 -371 0
-37 38 371 0
37 -38 371 0
-37 -38 -371 0
39 40 -372 0
-39 40 372 0
39 -40 372 0
-39 -40 -372 0
41 42 -373 0
-41 42 373 0
41 -42 373 0
-41 -42 -373 0
43 44 -374 0
-43 44 374 0
43 -44 374 0
-43 -44 -374 0
45 46 -375 0
-45 46 375 0
45 -46 375 0
-45 -46 -375 0
47 48 -376 0
-47 48 376 0
47 -48 376 0
-47 -48 -376 0
49 50 -377 0
-49 50 377 0
49 -50 377 0
-49 -50 -377 0
51 52 -378 0
-51 52 378 0
51 -52 378 0
-51 -52 -378 0
53 54 -379 0
-53 54 379 0
53 -54 379 0
-53 -54 -379 0
55 56 -380 0
-55 56 380 0
55 -56 380 0
-55 -56 -380 0
57 58 -381 0
-57 58 381 0
57 -58 381 0
-57 -58 -381 0
59 60 -382 0
-59 60 382 0
59 -60 382 0
-59 -60 -382 0
61 62 -383 0
-61 62 383 0
61 -62 383 0
-61 -62 -383 0
63 64 -384 0
-63 64 384 0
63 -64 384 0
-63 -64 -384 0
65 66 -385 0
-65 66 385 0
65 -66 385 0
-65 -66 -385 0
67 68 -386 0
-67 68 386 0
67 -68 386 0
-67 -68 -386 0
69 70 -387 0
-69 70 387 0
69 -70 387 0
-69 -70 -387 0
71 72 -388 0
-71 72 388 0
71 -72 388 0
-71 -72 -388 0
73 74 -389 0
-73 74 389 0
73 -74 389 0
-73 -74 -389 0
75 76 -390 0
-75 76 390 0
75 -76 390 0
-75 -76 -390 0
77 78 -391 0
-77 78 391 0
77 -78 391 0
-77 -78 -391 0
79 80 -392 0
-79 80 392 0
79 -80 392 0
-79 -80 -392 0
81 82 -393 0
-81 82 393 0
81 -82 393 0
-81 -82 -393 0
83 84 -394 0
-83 84 394 0
83 -84 394 0
-83 -84 -394 0
85 86 -395 0
-85 86 395 0
85 -86 395 0
-85 -86 -395 0
87 88 -396 0
-87 88 396 0
87 -88 396 0
-87 -88 -396 0
89 90 -397 0
-89 90 397 0
89 -90 397 0
-89 -90 -397 0
91 92 -398 0
-91 92 398 0
91 -92 398 0
-91 -92 -398 0
93 94 -399 0
-93 94 399 0
93 -94 399 0
-93 -94 -399 0
95 96 -400 0
-95 96 400 0
95 -96 400 0
-95 -96 -400 0
97 98 -401 0
-97 98 401 0
97 -98 401 0
-97 -98 -401 0
99 100 -402 0
-99 100 402 0
99 -100 402 0
-99 -100 -402 0
101 102 -403 0
-101 102 403 0
101 -102 403 0
-101 -102 -403 0
103 104 -404 0
-103 104 404 0
103 -104 404 0
-103 -104 -404 0
105 106 -405 0
-105 106 405 0
105 -106 405 0
-105 -106 -405 0
107 108 -406 0
-107 108 406 0
107 -108 406 0
-107 -108 -406 0
109 110 -407 0
-109 110 407 0
109 -110 407 0
-109 -110 -407 0
111 112 -408 0
-111 112 408 0
111 -112 408 0
-111 -112 -408 0
113 114 -409 0
-113 114 409 0
113 -114 409 0
-113 -114 -409 0
115 116 -410 0
-115 116 410 0
115 -116 410 0
-115 -116 -410 0
117 118 -411 0
-117 118 411 0
117 -118 411 0
-117 -118 -411 0
119 120 -412 0
-119 120 412 0
119 -120 412 0
-119 -120 -412 0
121 122 -413 0
-121 122 413 0
121 -122 413 0
-121 -122 -413 0
123 124 -414 0
-123 124 414 0
123 -124 414 0
-123 -124 -414 0
125 126 -415 0
-125 126 415 0
125 -126 415 0
-125 -126 -415 0
127 128 -416 0
-127 128 416 0
127 -128 416 0
-127 -128 -416 0
129 130 -417 0
-129 130 417 0
129 -130 417 0
-129 -130 -417 0
131 132 -418 0
-131 132 418 0
131 -132 418 0
-131 -132 -418 0
133 134 -419 0
-133 134 419 0
133 -134 419 0
-133 -134 -419 0
135 136 -420 0
-135 136 420 0
135 -136 420 0
-135 -136 -420 0
137 138 -421 0
-137 138 421 0
137 -138 421 0
-137 -138 -421 0
139 140 -422 0
-139 140 422 0
139 -140 422 0
-139 -140 -422 0
141 142 -423 0
-141 142 423 0
141 -142 423 0
-141 -142 -423 0
143 144 -424 0
-143 144 424 0
143 -144 424 0
-143 -144 -424 0
145 146 -425 0
-145 146 425 0
145 -146 425 0
-145 -146 -425 0
147 148 -426 0
-147 148 426 0
147 -148 426 0
-147 -148 -426 0
149 150 -427 0
-149 150 427 0
149 -150 427 0
-149 -150 -427 0
151 152 -428 0
-151 152 428 0
151 -152 428 0
-151 -152 -428 0
153 154 -429 0
-153 154 429 0
153 -154 429 0
-153 -154 -429 0
155 156 -430 0
-155 156 430 0
155 -156 430 0
-155 -156 -430 0
157 158 -431 0
-157 158 431 0
157 -158 431 0
-157 -158 -431 0
159 160 -432 0
-159 160 432 0
159 -160 432 0
-159 -160 -432 0
161 162 -433 0
-161 162 433 0
161 -162 433 0
-161 -162 -433 0
163 164 -434 0
-163 164 434 0
163 -164 434 0
-163 -164 -434 0
165 166 -435 0
-165 166 435 0
165 -166 435 0
-165 -166 -435 0
167 168 -436 0
-167 168 436 0
167 -168 436 0
-167 -168 -436 0
169 170 -437 0
-169 170 437 0
169 -170 437 0
-169 -170 -437 0
171 172 -438 0
-171 172 438 0
171 -172 438 0
-171 -172 -438 0
173 174 -439 0
-173 174 439 0
173 -174 439 0
-173 -174 -439 0
175 176 -440 0
-175 176 440 0
175 -176 440 0
-175 -176 -440 0
177 178 -441 0
-177 178 441 0
177 -178 441 0
-177 -178 -441 0
179 180 -442 0
-179 180 442 0
179 -180 442 0
-179 -180 -442 0
181 182 -443 0
-181 182 443 0
181 -182 443 0
-181 -182 -443 0
183 184 -444 0
-183 184 444 0
183 -184 444 0
-183 -184 -444 0
185 186 -445 0
-185 186 445 0
185 -186 445 0
-185 -186 -445 0
187 188 -446 0
-187 188 446 0
187 -188 446 0
-187 -188 -446 0
189 190 -447 0
-189 190 447 0
189 -190 447 0
-189 -190 -447 0
191 192 -448 0
-191 192 448 0
191 -192 448 0
-191 -192 -448 0
193 194 -449 0
-193 194 449 0
193 -194 449 0
-193 -194 -449 0
195 196 -450 0
-195 196 450 0
195 -196 450 0
-195 -196 -450 0
197 198 -451 0
-197 198 451 0
197 -198 451 0
-197 -198 -451 0
199 200 -452 0
-199 200 452 0
199 -200 452 0
-199 -200 -452 0
201 202 -453 0
-201 202 453 0
201 -202 453 0
-201 -202 -453 0
203 204 -454 0
-203 204 454 0
203 -204 454 0
-203 -204 -454 0
205 206 -455 0
-205 206 455 0
205 -206 455 0
-205 -206 -455 0
207 208 -456 0
-207 208 456 0
207 -208 456 0
-207 -208 -456 0
209 210 -457 0
-209 210 457 0
209 -210 457 0
-209 -210 -457 0
211 212 -458 0
-211 212 458 0
211 -212 458 0
-211 -212 -458 0
213 214 -459 0
-213 214 459 0
213 -214 459 0
-213 -214 -459 0
215 216 -460 0
-215 216 460 0
215 -216 460 0
-215 -216 -460 0
217 218 -461 0
-217 218 461 0
217 -218 461 0
-217 -218 -461 0
219 220 -462 0
-219 220 462 0
219 -220 462 0
-219 -220 -462 0
221 222 -463 0
-221 222 463 0
221 -222 463 0
-221 -222 -463 0
223 224 -464 0
-223 224 464 0
223 -224 464 0
-223 -224 -464 0
225 226 -465 0
-225 226 465 0
225 -226 465 0
-225 -226 -465 0
227 228 -466 0
-227 228 466 0
227 -228 466 0
-227 -228 -466 0
229 230 -467 0
-229 230 467 0
229 -230 467 0
-229 -230 -467 0
231 232 -468 0
-231 232 468 0
231 -232 468 0
-231 -232 -468 0
233 234 -469 0
-233 234 469 0
233 -234 469 0
-233 -234 -469 0
235 236 -470 0
-235 236 470 0
235 -236 470 0
-235 -236 -470 0
237 238 -471 0
-237 238 471 0
237 -238 471 0
-237 -238 -471 0
239 240 -472 0
-239 240 472 0
239 -240 472 0
-239 -240 -472 0
241 242 -473 0
-241 242 473 0
241 -242 473 0
-241 -242 -473 0
243 244 -474 0
-243 244 474 0
243 -244 474 0
-243 -244 -474 0
245 246 -475 0
-245 246 475 0
245 -246 475 0
-245 -246 -475 0
247 248 -476 0
-247 248 476 0
247 -248 476 0
-247 -248 -476 0
249 250 -477 0
-249 250 477 0
249 -250 477 0
-249 -250 -477 0
251 252 -478 0
-251 252 478 0
251 -252 478 0
-251 -252 -478 0
253 254 -479 0
-253 254 479 0
253 -254 479 0
-253 -254 -479 0
255 256 -480 0
-255 256 480 0
255 -256 480 0
-255 -256 -480 0
257 258 -481 0
-257 258 481 0
257 -258 481 0
-257 -258 -481 0
259 260 -482 0
-259 260 482 0
259 -260 482 0
-259 -260 -482 0
261 262 -483 0
-261 262 483 0
261 -262 483 0
-261 -262 -483 0
263 264 -484 0
-263 264 484 0
263 -264 484 0
-263 -264 -484 0
265 266 -485 0
-265 266 485 0
265 -266 485 0
-265 -266 -485 0
267 268 -486 0
-267 268 486 0
267 -268 486 0
-267 -268 -486 0
269 270 -487 0
-269 270 487 0
269 -270 487 0
-269 -270 -487 0
271 272 -488 0
-271 272 488 0
271 -272 488 0
-271 -272 -488 0
273 274 -489 0
-273 274 489 0
273 -274 489 0
-273 -274 -489 0
275 276 -490 0
-275 276 490 0
275 -276 490 0
-275 -276 -490 0
277 278 -491 0
-277 278 491 0
277 -278 491 0
-277 -278 -491 0
279 280 -492 0
-279 280 492 0
279 -280 492 0
-279 -280 -492 0
281 282 -493 0
-281 282 493 0
281 -282 493 0
-281 -282 -493 0
283 284 -494 0
-283 284 494 0
283 -284 494 0
-283 -284 -494 0
285 286 -495 0
-285 286 495 0
285 -286 495 0
-285 -286 -495 0
287 288 -496 0
-287 288 496 0
287 -288 496 0
-287 -288 -496 0
289 290 -497 0
-289 290 497 0
289 -290 497 0
-289 -290 -497 0
291 292 -498 0
-291 292 498 0
291 -292 498 0
-291 -292 -498 0
293 294 -499 0
-293 294 499 0
293 -294 499 0
-293 -294 -499 0
295 296 -500 0
-295 296 500 0
295 -296 500 0
-295 -296 -500 0
297 298 -501 0
-297 298 501 0
297 -298 501 0
-297 -298 -501 0
299 300 -502 0
-299 300 502 0
299 -300 502 0
-299 -300 -502 0
301 302 -503 0
-301 302 503 0
301 -302 503 0
-301 -302 -503 0
303 304 -504 0
-303 304 504 0
303 -304 504 0
-303 -304 -504 0
305 306 -505 0
-305 306 505 0
305 -306 505 0
-305 -306 -505 0
307 308 -506 0
-307 308 506 0
307 -308 506 0
-307 -308 -506 0
309 310 -507 0
-309 310 507 0
309 -310 507 0
-309 -310 -507 0
311 312 -508 0
-311 312 508 0
311 -312 508 0
-311 -312 -508 0
313 314 -509 0
-313 314 509 0
313 -314 509 0
-313 -314 -509 0
315 316 -510 0
-315 316 510 0
315 -316 510 0
-315 -316 -510 0
317 318 -511 0
-317 318 511 0
317 -318 511 0
-317 -318 -511 0
319 320 -512 0
-319 320 512 0
319 -320 512 0
-319 -320 -512 0
321 322 -513 0
-321 322 513 0
321 -322 513 0
-321 -322 -513 0
323 324 -514 0
-323 324 514 0
323 -324 514 0
-323 -324 -514 0
325 326 -515 0
-325 326 515 0
325 -326 515 0
-325 -326 -515 0
327 328 -516 0
-327 328 516 0
327 -328 516 0
-327 -328 -516 0
329 330 -517 0
-329 330 517 0
329 -330 517 0
-329 -330 -517 0
331 332 -518 0
-331 332 518 0
331 -332 518 0
-331 -332 -518 0
333 334 -519 0
-333 334 519 0
333 -334 519 0
-333 -334 -519 0
335 336 -520 0
-335 336 520 0
335 -336 520 0
-335 -336 -520 0
337 338 -521 0
-337 338 521 0
337 -338 521 0
-337 -338 -521 0
339 340 -522 0
-339 340 522 0
339 -340 522 0
-339 -340 -522 0
341 342 -523 0
-341 342 523 0
341 -342 523 0
-341 -342 -523 0
343 344 -524 0
-343 344 524 0
343 -344 524 0
-343 -344 -524 0
345 346 -525 0
-345 346 525 0
345 -346 525 0
-345 -346 -525 0
347 348 -526 0
-347 348 526 0
347 -348 526 0
-347 -348 -526 0
353 354 -527 0
-353 354 527 0
353 -354 527 0
-353 -354 -527 0
355 356 -528 0
-355 356 528 0
355 -356 528 0
-355 -356 -528 0
357 358 -529 0
-357 358 529 0
357 -358 529 0
-357 -358 -529 0
359 360 -530 0
-359 360 530 0
359 -360 530 0
-359 -360 -530 0
361 362 -531 0
-361 362 531 0
361 -362 531 0
-361 -362 -531 0
363 364 -532 0
-363 364 532 0
363 -364 532 0
-363 -364 -532 0
365 366 -533 0
-365 366 533 0
365 -366 533 0
-365 -366 -533 0
367 368 -534 0
-367 368 534 0
367 -368 534 0
-367 -368 -534 0
369 370 -535 0
-369 370 535 0
369 -370 535 0
-369 -370 -535 0
371 372 -536 0
-371 372 536 0
371 -372 536 0
-371 -372 -536 0
373 374 -537 0
-373 374 537 0
373 -374 537 0
-373 -374 -537 0
375 376 -538 0
-375 376 538 0
375 -376 538 0
-375 -376 -538 0
377 378 -539 0
-377 378 539 0
377 -378 539 0
-377 -378 -539 0
379 380 -540 0
-379 380 540 0
379 -380 540 0
-379 -380 -540 0
381 382 -541 0
-381 382 541 0
381 -382 541 0
-381 -382 -541 0
383 384 -542 0
-383 384 542 0
383 -384 542 0
-383 -384 -542 0
385 386 -543 0
-385 386 543 0
385 -386 543 0
-385 -386 -543 0
387 388 -544 0
-387 388 544 0
387 -388 544 0
-387 -388 -544 0
389 390 -545 0
-389 390 545 0
389 -390 545 0
-389 -390 -545 0
391 392 -546 0
-391 392 546 0
391 -392 546 0
-391 -392 -546 0
393 394 -547 0
-393 394 547 0
393 -394 547 0
-393 -394 -547 0
395 396 -548 0
-395 396 548 0
395 -396 548 0
-395 -396 -548 0
397 398 -549 0
-397 398 549 0
397 -398 549 0
-397 -398 -549 0
399 400 -550 0
-399 400 550 0
399 -400 550 0
-399 -400 -550 0
401 402 -551 0
-401 402 551 0
401 -402 551 0
-401 -402 -551 0
403 404 -552 0
-403 404 552 0
403 -404 552 0
-403 -404 -552 0
405 406 -553 0
-405 406 553 0
405 -406 553 0
-405 -406 -553 0
407 408 -554 0
-407 408 554 0
407 -408 554 0
-407 -408 -554 0
409 410 -555 0
-409 410 555 0
409 -410 555 0
-409 -410 -555 0
411 412 -556 0
-411 412 556 0
411 -412 556 0
-411 -412 -556 0
413 414 -557 0
-413 414 557 0
413 -414 557 0
-413 -414 -557 0
415 416 -558 0
-415 416 558 0
415 -416 558 0
-415 -416 -558 0
417 418 -559 0
-417 418 559 0
417 -418 559 0
-417 -418 -559 0
419 420 -560 0
-419 420 560 0
419 -420 560 0
-419 -420 -560 0
421 422 -561 0
-421 422 561 0
421 -422 561 0
-421 -422 -561 0
423 424 -562 0
-423 424 562 0
423 -424 562 0
-423 -424 -562 0
425 426 -563 0
-425 426 563 0
425 -426 563 0
-425 -426 -563 0
427 428 -564 0
-427 428 564 0
427 -428 564 0
-427 -428 -564 0
429 430 -565 0
-429 430 565 0
429 -430 565 0
-429 -430 -565 0
431 432 -566 0
-431 432 566 0
431 -432 566 0
-431 -432 -566 0
433 434 -567 0
-433 434 567 0
433 -434 567 0
-433 -434 -567 0
435 436 -568 0
-435 436 568 0
435 -436 568 0
-435 -436 -568 0
437 438 -569 0
-437 438 569 0
437 -438 569 0
-437 -438 -569 0
439 440 -570 0
-439 440 570 0
439 -440 570 0
-439 -440 -570 0
441 442 -571 0
-441 442 571 0
441 -442 571 0
-441 -442 -571 0
443 444 -572 0
-443 444 572 0
443 -444 572 0
-443 -444 -572 0
445 446 -573 0
-445 446 573 0
445 -446 573 0
-445 -446 -573 0
447 448 -574 0
-447 448 574 0
447 -448 574 0
-447 -448 -574 0
449 450 -575 0
-449 450 575 0
449 -450 575 0
-449 -450 -575 0
451 452 -576 0
-451 452 576 0
451 -452 576 0
-451 -452 -576 0
453 454 -577 0
-453 454 577 0
453 -454 577 0
-453 -454 -577 0
455 456 -578 0
-455 456 578 0
455 -456 578 0
-455 -456 -578 0
457 458 -579 0
-457 458 579 0
457 -458 579 0
-457 -458 -579 0
459 460 -580 0
-459 460 580 0
459 -460 580 0
-459 -460 -580 0
461 462 -581 0
-461 462 581 0
461 -462 581 0
-461 -462 -581 0
463 464 -582 0
-463 464 582 0
463 -464 582 0
-463 -464 -582 0
465 466 -583 0
-465 466 583 0
465 -466 583 0
-465 -466 -583 0
467 468 -584 0
-467 468 584 0
467 -468 584 0
-467 -468 -584 0
469 470 -585 0
-469 470 585 0
469 -470 585 0
-469 -470 -585 0
471 472 -586 0
-471 472 586 0
471 -472 586 0
-471 -472 -586 0
473 474 -587 0
-473 474 587 0
473 -474 587 0
-473 -474 -587 0
475 476 -588 0
-475 476 588 0
475 -476 588 0
-475 -476 -588 0
477 478 -589 0
-477 478 589 0
477 -478 589 0
-477 -478 -589 0
479 480 -590 0
-479 480 590 0
479 -480 590 0
-479 -480 -590 0
481 482 -591 0
-481 482 591 0
481 -482 591 0
-481 -482 -591 0
483 484 -592 0
-483 484 592 0
483 -484 592 0
-483 -484 -592 0
485 486 -593 0
-485 486 593 0
485 -486 593 0
-485 -486 -593 0
487 488 -594 0
-487 488 594 0
487 -488 594 0
-487 -488 -594 0
489 490 -595 0
-489 490 595 0
489 -490 595 0
-489 -490 -595 0
491 492 -596 0
-491 492 596 0
491 -492 596 0
-491 -492 -596 0
493 494 -597 0
-493 494 597 0
493 -494 597 0
-493 -494 -597 0
495 496 -598 0
-495 496 598 0
495 -496 598 0
-495 -496 -598 0
497 498 -599 0
-497 498 599 0
497 -498 599 0
-497 -498 -599 0
499 500 -600 0
-499 500 600 0
499 -500 600 0
-499 -500 -600 0
501 502 -601 0
-501 502 601 0
501 -502 601 0
-501 -502 -601 0
503 504 -602 0
-503 504 602 0
503 -504 602 0
-503 -504 -602 0
505 506 -603 0
-505 506 603 0
505 -506 603 0
-505 -506 -603 0
507 508 -604 0
-507 508 604 0
507 -508 604 0
-507 -508 -604 0
509 510 -605 0
-509 510 605 0
509 -510 605 0
-509 -510 -605 0
511 512 -606 0
-511 512 606 0
511 -512 606 0
-511 -512 -606 0
513 514 -607 0
-513 514 607 0
513 -514 607 0
-513 -514 -607 0
515 516 -608 0
-515 516 608 0
515 -516 608 0
-515 -516 -608 0
517 518 -609 0
-517 518 609 0
517 -518 609 0
-517 -518 -609 0
519 520 -610 0
-519 520 610 0
519 -520 610 0
-519 -520 -610 0
521 522 -611 0
-521 522 611 0
521 -522 611 0
-521 -522 -611 0
523 524 -612 0
-523 524 612 0
523 -524 612 0
-523 -524 -612 0
525 526 -613 0
-525 526 613 0
525 -526 613 0
-525 -526 -613 0
527 528 -614 0
-527 528 614 0
527 -528 614 0
-527 -528 -614 0
529 530 -615 0
-529 530 615 0
529 -530 615 0
-529 -530 -615 0
531 532 -616 0
-531 532 616 0
531 -532 616 0
-531 -532 -616 0
533 534 -617 0
-533 534 617 0
533 -534 617 0
-533 -534 -617 0
535 536 -618 0
-535 536 618 0
535 -536 618 0
-535 -536 -618 0
537 538 -619 0
-537 538 619 0
537 -538 619 0
-537 -538 -619 0
539 540 -620 0
-539 540 620 0
539 -540 620 0
-539 -540 -620 0
541 542 -621 0
-541 542 621 0
541 -542 621 0
-541 -542 -621 0
543 544 -622 0
-543 544 622 0
543 -544 622 0
-543 -544 -622 0
545 546 -623 0
-545 546 623 0
545 -546 623 0
-545 -546 -623 0
547 548 -624 0
-547 548 624 0
547 -548 624 0
-547 -548 -624 0
549 550 -625 0
-549 550 625 0
549 -550 625 0
-549 -550 -625 0
551 552 -626 0
-551 552 626 0
551 -552 626 0
-551 -552 -626 0
553 554 -627 0
-553 554 627 0
553 -554 627 0
-553 -554 -627 0
555 556 -628 0
-555 556 628 0
555 -556 628 0
-555 -556 -628 0
557 558 -629 0
-557 558 629 0
557 -558 629 0
-557 -558 -629 0
559 560 -630 0
-559 560 630 0
559 -560 630 0
-559 -560 -630 0
561 562 -631 0
-561 562 631 0
561 -562 631 0
-561 -562 -631 0
563 564 -632 0
-563 564 632 0
563 -564 632 0
-563 -564 -632 0
565 566 -633 0
-565 566 633 0
565 -566 633 0
-565 -566 -633 0
567 568 -634 0
-567 568 634 0
567 -568 634 0
-567 -568 -634 0
569 570 -635 0
-569 570 635 0
569 -570 635 0
-569 -570 -635 0
571 572 -636 0
-571 572 636 0
571 -572 636 0
-571 -572 -636 0
573 574 -637 0
-573 574 637 0
573 -574 637 0
-573 -574 -637 0
575 576 -638 0
-575 576 638 0
575 -576 638 0
-575 -576 -638 0
577 578 -639 0
-577 578 639 0
577 -578 639 0
-577 -578 -639 0
579 580 -640 0
-579 580 640 0
579 -580 640 0
-579 -580 -640 0
581 582 -641 0
-581 582 641 0
581 -582 641 0
-581 -582 -641 0
583 584 -642 0
-583 584 642 0
583 -584 642 0
-583 -584 -642 0
585 586 -643 0
-585 586 643 0
585 -586 643 0
-585 -586 -643 0
587 588 -644 0
-587 588 644 0
587 -588 644 0
-587 -588 -644 0
589 590 -645 0
-589 590 645 0
589 -590 645 0
-589 -590 -645 0
591 592 -646 0
-591 592 646 0
591 -592 646 0
-591 -592 -646 0
593 594 -647 0
-593 594 647 0
593 -594 647 0
-593 -594 -647 0
595 596 -648 0
-595 596 648 0
595 -596 648 0
-595 -596 -648 0
597 598 -649 0
-597 598 649 0
597 -598 649 0
-597 -598 -649 0
599 600 -650 0
-599 600 650 0
599 -600 650 0
-599 -600 -650 0
601 602 -651 0
-601 602 651 0
601 -602 651 0
-601 -602 -651 0
603 604 -652 0
-603 604 652 0
603 -604 652 0
-603 -604 -652 0
605 606 -653 0
-605 606 653 0
605 -606 653 0
-605 -606 -653 0
607 608 -654 0
-607 608 654 0
607 -608 654 0
-607 -608 -654 0
609 610 -655 0
-609 610 655 0
609 -610 655 0
-609 -610 -655 0
611 612 -656 0
-611 612 656 0
611 -612 656 0
-611 -612 -656 0
613 349 -657 0
-613 349 657 0
613 -349 657 0
-613 -349 -657 0
614 615 -658 0
-614 615 658 0
614 -615 658 0
-614 -615 -658 0
616 617 -659 0
-616 617 659 0
616 -617 659 0
-616 -617 -659 0
618 619 -660 0
-618 619 660 0
618 -619 660 0
-618 -619 -660 0
620 621 -661 0
-620 621 661 0
620 -621 661 0
-620 -621 -661 0
622 623 -662 0
-622 623 662 0
622 -623 662 0
-622 -623 -662 0
624 625 -663 0
-624 625 663 0
624 -625 663 0
-624 -625 -663 0
626 627 -664 0
-626 627 664 0
626 -627 664 0
-626 -627 -664 0
628 629 -665 0
-628 629 665 0
628 -629 665 0
-628 -629 -665 0
630 631 -666 0
-630 631 666 0
630 -631 666 0
-630 -631 -666 0
632 633 -667 0
-632 633 667 0
632 -633 667 0
-632 -633 -667 0
634 635 -668 0
-634 635 668 0
634 -635 668 0
-634 -635 -668 0
636 637 -669 0
-636 637 669 0
636 -637 669 0
-636 -637 -669 0
638 639 -670 0
-638 639 670 0
638 -639 670 0
-638 -639 -670 0
640 641 -671 0
-640 641 671 0
640 -641 671 0
-640 -641 -671 0
642 643 -672 0
-642 643 672 0
642 -643 672 0
-642 -643 -672 0
644 645 -673 0
-644 645 673 0
644 -645 673 0
-644 -645 -673 0
646 647 -674 0
-646 647 674 0
646 -647 674 0
-646 -647 -674 0
648 649 -675 0
-648 649 675 0
648 -649 675 0
-648 -649 -675 0
650 651 -676 0
-650 651 676 0
650 -651 676 0
-650 -651 -676 0
652 653 -677 0
-652 653 677 0
652 -653 677 0
-652 -653 -677 0
654 655 -678 0
-654 655 678 0
654 -655 678 0
-654 -655 -678 0
656 657 -679 0
-656 657 679 0
656 -657 679 0
-656 -657 -679 0
658 659 -680 0
-658 659 680 0
658 -659 680 0
-658 -659 -680 0
660 661 -681 0
-660 661 681 0
660 -661 681 0
-660 -661 -681 0
662 663 -682 0
-662 663 682 0
662 -663 682 0
-662 -663 -682 0
664 665 -683 0
-664 665 683 0
664 -665 683 0
-664 -665 -683 0
666 667 -684 0
-666 667 684 0
666 -667 684 0
-666 -667 -684 0
668 669 -685 0
-668 669 685 0
668 -669 685 0
-668 -669 -685 0
670 671 -686 0
-670 671 686 0
670 -671 686 0
-670 -671 -686 0
672 673 -687 0
-672 673 687 0
672 -673 687 0
-672 -673 -687 0
674 675 -688 0
-674 675 688 0
674 -675 688 0
-674 -675 -688 0
676 677 -689 0
-676 677 689 0
676 -677 689 0
-676 -677 -689 0
678 679 -690 0
-678 679 690 0
678 -679 690 0
-678 -679 -690 0
680 681 -691 0
-680 681 691 0
680 -681 691 0
-680 -681 -691 0
682 683 -692 0
-682 683 692 0
682 -683 692 0
-682 -683 -692 0
684 685 -693 0
-684 685 693 0
684 -685 693 0
-684 -685 -693 0
686 687 -694 0
-686 687 694 0
686 -687 694 0
-686 -687 -694 0
688 689 -695 0
-688 689 695 0
688 -689 695 0
-688 -689 -695 0
691 692 -696 0
-691 692 696 0
691 -692 696 0
-691 -692 -696 0
693 694 -697 0
-693 694 697 0
693 -694 697 0
-693 -694 -697 0
695 690 -698 0
-695 690 698 0
695 -690 698 0
-695 -690 -698 0
696 697 -699 0
-696 697 699 0
696 -697 699 0
-696 -697 -699 0
699 698 -350 0
-699 698 350 0
699 -698 350 0
-699 -698 -350 0
